NAME: GRASP_42_9
TYPE: TSP
COMMENT: line_42_9
DIMENSION: 42
EDGE_WEIGHT_TYPE: EUC_2D
NODE_COORD_SECTION
1 1380 902
2 2136 3614
3 1768 1116
4 3193 204
5 4535 3224
6 1373 1789
7 3988 3829
8 3707 1284
9 262 1702
10 4085 1675
11 3908 4883
12 2911 2179
13 4496 2589
14 1491 939
15 2627 667
16 3845 15
17 2721 40
18 3632 3282
19 3199 3603
20 4466 3868
21 2406 1160
22 4285 320
23 2295 4058
24 4050 1777
25 2082 3718
26 1346 3227
27 884 2219
28 4215 962
29 4110 4059
30 4448 3043
31 4424 647
32 4491 2686
33 2198 2448
34 1312 3638
35 4277 2344
36 2833 1755
37 3074 1060
38 2633 4776
39 904 4379
40 2342 2670
41 1930 947
42 2425 2665
